; Copyright (c) 2026 The RIINA Authors. All rights reserved.
; Copyright (c) 2026 The RIINA Authors.
; Auto-generated from 02_FORMAL/coq/domains/CompilerCorrectness.v (78 assertions)
; Generated by scripts/generate-full-stack.py
; Module: CompilerCorrectness

(set-logic ALL)
(set-option :produce-models true)

; ir_ty (matches Coq: Inductive ir_ty)
(declare-datatypes ((ir_ty 0)) (((IR_TUnit) (IR_TBool) (IR_TInt) (IR_TFn) (IR_TProd) (IR_TSum) (IR_Unit) (IR_Bool) (IR_Int) (IR_Pair) (IR_Fst) (IR_Snd) (IR_Inl) (IR_Inr) (IR_If))))

; src_ty (matches Coq: Inductive src_ty)
(declare-datatypes ((src_ty 0)) (((Src_TUnit) (Src_TBool) (Src_TInt) (Src_TProd) (Src_TSum) (Src_TFn))))

; src_expr (matches Coq: Inductive src_expr)
(declare-datatypes ((src_expr 0)) (((Src_Unit) (Src_Bool) (Src_Int) (Src_Pair) (Src_Fst) (Src_Snd) (Src_Inl) (Src_Inr) (Src_If))))

; ParsingPhase (matches Coq: Record ParsingPhase)
(declare-datatypes ((ParsingPhase 0))
  (((mk-parsing_phase (pp_syntax_correct Bool) (pp_ast_well_formed Bool) (pp_error_recovery Bool)))))

; TypeCheckPhase (matches Coq: Record TypeCheckPhase)
(declare-datatypes ((TypeCheckPhase 0))
  (((mk-type_check_phase (tc_type_soundness Bool) (tc_inference_complete Bool) (tc_constraint_solving Bool)))))

; OptimizationPhase (matches Coq: Record OptimizationPhase)
(declare-datatypes ((OptimizationPhase 0))
  (((mk-optimization_phase (op_semantics_preserved Bool) (op_termination_preserved Bool) (op_memory_safety_preserved Bool)))))

; CodeGenPhase (matches Coq: Record CodeGenPhase)
(declare-datatypes ((CodeGenPhase 0))
  (((mk-code_gen_phase (cg_instruction_correct Bool) (cg_register_allocation Bool) (cg_calling_convention Bool) (cg_stack_layout Bool)))))

; CompilerConfig (matches Coq: Record CompilerConfig)
(declare-datatypes ((CompilerConfig 0))
  (((mk-compiler_config (cc_parsing ParsingPhase) (cc_typecheck TypeCheckPhase) (cc_optimization OptimizationPhase) (cc_codegen CodeGenPhase)))))

; parsing_correct (matches Coq: Definition parsing_correct)
(define-fun parsing_correct ((p ParsingPhase)) Bool
  (and (pp_syntax_correct p) (pp_ast_well_formed p) (pp_error_recovery p)))

; typecheck_sound (matches Coq: Definition typecheck_sound)
(define-fun typecheck_sound ((t TypeCheckPhase)) Bool
  (and (tc_type_soundness t) (tc_inference_complete t) (tc_constraint_solving t)))

; optimization_safe (matches Coq: Definition optimization_safe)
(define-fun optimization_safe ((o OptimizationPhase)) Bool
  (and (op_semantics_preserved o) (op_termination_preserved o) (op_memory_safety_preserved o)))

; codegen_correct (matches Coq: Definition codegen_correct)
(define-fun codegen_correct ((c CodeGenPhase)) Bool
  (and (cg_instruction_correct c) (cg_register_allocation c) (cg_calling_convention c) (cg_stack_layout c)))

; compiler_verified (matches Coq: Definition compiler_verified)
(define-fun compiler_verified ((c CompilerConfig)) Bool
  true)

; riina_parsing (matches Coq: Definition riina_parsing)
(define-fun riina_parsing () ParsingPhase
  (mk-parsing_phase true true true))

; riina_typecheck (matches Coq: Definition riina_typecheck)
(define-fun riina_typecheck () TypeCheckPhase
  (mk-type_check_phase true true true))

; riina_optim (matches Coq: Definition riina_optim)
(define-fun riina_optim () OptimizationPhase
  (mk-optimization_phase true true true))

; riina_codegen (matches Coq: Definition riina_codegen)
(define-fun riina_codegen () CodeGenPhase
  (mk-code_gen_phase true true true true))

; riina_compiler (matches Coq: Definition riina_compiler)
(define-fun riina_compiler () CompilerConfig
  (mk-compiler_config (riina_parsing) (riina_typecheck) (riina_optim) (riina_codegen)))

; ir_equiv (matches Coq: Definition ir_equiv)
(define-fun ir_equiv () Prop true)

; src_ir_equiv (matches Coq: Definition src_ir_equiv)
(define-fun src_ir_equiv ((e_src src_expr) (e_ir ir_expr)) Prop
  true)

; andb_true_iff (matches Coq: Lemma andb_true_iff)
(assert (= true true)) ; andb_true_iff [untranslatable]

; CC_001 (matches Coq: Theorem CC_001)
(assert (= (parsing_correct riina_parsing) true)) ; CC_001

; CC_002 (matches Coq: Theorem CC_002)
(assert (= (typecheck_sound riina_typecheck) true)) ; CC_002

; CC_003 (matches Coq: Theorem CC_003)
(assert (= (optimization_safe riina_optim) true)) ; CC_003

; CC_004 (matches Coq: Theorem CC_004)
(assert (= (codegen_correct riina_codegen) true)) ; CC_004

; CC_005 (matches Coq: Theorem CC_005)
(assert (= (compiler_verified riina_compiler) true)) ; CC_005

; CC_006 (matches Coq: Theorem CC_006)
(assert (= (pp_syntax_correct riina_parsing) true)) ; CC_006

; CC_007 (matches Coq: Theorem CC_007)
(assert (= (tc_type_soundness riina_typecheck) true)) ; CC_007

; CC_008 (matches Coq: Theorem CC_008)
(assert (= (op_semantics_preserved riina_optim) true)) ; CC_008

; CC_009 (matches Coq: Theorem CC_009)
(assert (= (cg_instruction_correct riina_codegen) true)) ; CC_009

; CC_010 (matches Coq: Theorem CC_010)
(assert (= (cg_calling_convention riina_codegen) true)) ; CC_010

; CC_011 (matches Coq: Theorem CC_011)
(assert (= true true)) ; CC_011 [untranslatable]

; CC_012 (matches Coq: Theorem CC_012)
(assert (= true true)) ; CC_012 [untranslatable]

; CC_013 (matches Coq: Theorem CC_013)
(assert (= true true)) ; CC_013 [untranslatable]

; CC_014 (matches Coq: Theorem CC_014)
(assert (= true true)) ; CC_014 [untranslatable]

; CC_015 (matches Coq: Theorem CC_015)
(assert (= true true)) ; CC_015 [untranslatable]

; CC_016 (matches Coq: Theorem CC_016)
(assert (= true true)) ; CC_016 [untranslatable]

; CC_017 (matches Coq: Theorem CC_017)
(assert (= true true)) ; CC_017 [untranslatable]

; CC_018 (matches Coq: Theorem CC_018)
(assert (= true true)) ; CC_018 [untranslatable]

; CC_019 (matches Coq: Theorem CC_019)
(assert (= true true)) ; CC_019 [untranslatable]

; CC_020 (matches Coq: Theorem CC_020)
(assert (= true true)) ; CC_020 [untranslatable]

; CC_021 (matches Coq: Theorem CC_021)
(assert (= true true)) ; CC_021 [untranslatable]

; CC_022 (matches Coq: Theorem CC_022)
(assert (= true true)) ; CC_022 [untranslatable]

; CC_023 (matches Coq: Theorem CC_023)
(assert (= true true)) ; CC_023 [untranslatable]

; CC_024 (matches Coq: Theorem CC_024)
(assert (= true true)) ; CC_024 [untranslatable]

; CC_025 (matches Coq: Theorem CC_025)
(assert (= true true)) ; CC_025 [untranslatable]

; CC_026 (matches Coq: Theorem CC_026)
(assert (and (= (parsing_correct riina_parsing) true) (= (typecheck_sound riina_typecheck) true))) ; CC_026

; CC_027 (matches Coq: Theorem CC_027)
(assert (and (= (optimization_safe riina_optim) true) (= (codegen_correct riina_codegen) true))) ; CC_027

; CC_028 (matches Coq: Theorem CC_028)
(assert (and (= (tc_type_soundness riina_typecheck) true) (= (op_semantics_preserved riina_optim) true))) ; CC_028

; CC_029 (matches Coq: Theorem CC_029)
(assert (= true true)) ; CC_029 [untranslatable]

; CC_030_complete (matches Coq: Theorem CC_030_complete)
(assert (= true true)) ; CC_030_complete [untranslatable]

; ir_value_not_step (matches Coq: Lemma ir_value_not_step)
(assert (= true true)) ; ir_value_not_step [untranslatable]

; ir_preservation (matches Coq: Theorem ir_preservation)
(assert (= true true)) ; ir_preservation [untranslatable]

; ir_multi_preservation (matches Coq: Theorem ir_multi_preservation)
(assert (= true true)) ; ir_multi_preservation [untranslatable]

; ir_pair_value_not_step (matches Coq: Lemma ir_pair_value_not_step)
(assert (= true true)) ; ir_pair_value_not_step [untranslatable]

; ir_bool_not_step (matches Coq: Lemma ir_bool_not_step)
(assert (= true true)) ; ir_bool_not_step [untranslatable]

; ir_step_deterministic (matches Coq: Theorem ir_step_deterministic)
(assert (= true true)) ; ir_step_deterministic [untranslatable]

; ir_progress (matches Coq: Theorem ir_progress)
(assert (= true true)) ; ir_progress [untranslatable]

; ir_equiv_refl (matches Coq: Theorem ir_equiv_refl)
(assert (= true true)) ; ir_equiv_refl [untranslatable]

; ir_equiv_sym (matches Coq: Theorem ir_equiv_sym)
(assert (= true true)) ; ir_equiv_sym [untranslatable]

; ir_equiv_trans (matches Coq: Theorem ir_equiv_trans)
(assert (= true true)) ; ir_equiv_trans [untranslatable]

; ir_multi_trans (matches Coq: Lemma ir_multi_trans)
(assert (= true true)) ; ir_multi_trans [untranslatable]

; ir_multi_pair_cong1 (matches Coq: Lemma ir_multi_pair_cong1)
(assert (= true true)) ; ir_multi_pair_cong1 [untranslatable]

; ir_multi_pair_cong2 (matches Coq: Lemma ir_multi_pair_cong2)
(assert (= true true)) ; ir_multi_pair_cong2 [untranslatable]

; opt_if_true_sound (matches Coq: Theorem opt_if_true_sound)
(assert (= true true)) ; opt_if_true_sound [untranslatable]

; opt_if_false_sound (matches Coq: Theorem opt_if_false_sound)
(assert (= true true)) ; opt_if_false_sound [untranslatable]

; opt_fst_pair_sound (matches Coq: Theorem opt_fst_pair_sound)
(assert (= true true)) ; opt_fst_pair_sound [untranslatable]

; opt_snd_pair_sound (matches Coq: Theorem opt_snd_pair_sound)
(assert (= true true)) ; opt_snd_pair_sound [untranslatable]

; ir_value_normal (matches Coq: Theorem ir_value_normal)
(assert (= true true)) ; ir_value_normal [untranslatable]

; ir_value_reduces_self (matches Coq: Theorem ir_value_reduces_self)
(assert (= true true)) ; ir_value_reduces_self [untranslatable]

; equiv_preserves_typing (matches Coq: Theorem equiv_preserves_typing)
(assert (= true true)) ; equiv_preserves_typing [untranslatable]

; src_value_not_step (matches Coq: Lemma src_value_not_step)
(assert (= true true)) ; src_value_not_step [untranslatable]

; src_step_deterministic (matches Coq: Theorem src_step_deterministic)
(assert (= true true)) ; src_step_deterministic [untranslatable]

; src_preservation (matches Coq: Theorem src_preservation)
(assert (= true true)) ; src_preservation [untranslatable]

; src_progress (matches Coq: Theorem src_progress)
(assert (= true true)) ; src_progress [untranslatable]

; compile_preserves_value (matches Coq: Theorem compile_preserves_value)
(assert (= true true)) ; compile_preserves_value [untranslatable]

; compile_preserves_typing (matches Coq: Theorem compile_preserves_typing)
(assert (= true true)) ; compile_preserves_typing [untranslatable]

; compile_forward_simulation (matches Coq: Theorem compile_forward_simulation)
(assert (= true true)) ; compile_forward_simulation [untranslatable]

; compile_forward_multi_simulation (matches Coq: Theorem compile_forward_multi_simulation)
(assert (= true true)) ; compile_forward_multi_simulation [untranslatable]

; compile_value_inv (matches Coq: Lemma compile_value_inv)
(assert (= true true)) ; compile_value_inv [untranslatable]

; compile_backward_simulation (matches Coq: Theorem compile_backward_simulation)
(assert (= true true)) ; compile_backward_simulation [untranslatable]

; compile_establishes_equiv (matches Coq: Theorem compile_establishes_equiv)
(assert (= true true)) ; compile_establishes_equiv [untranslatable]

; equiv_preserved_forward (matches Coq: Theorem equiv_preserved_forward)
(assert (= true true)) ; equiv_preserved_forward [untranslatable]

; compile_terminates_equivalently (matches Coq: Theorem compile_terminates_equivalently)
(assert (= true true)) ; compile_terminates_equivalently [untranslatable]

; compile_type_safety (matches Coq: Theorem compile_type_safety)
(assert (= true true)) ; compile_type_safety [untranslatable]

; opt_dead_code_if_true (matches Coq: Theorem opt_dead_code_if_true)
(assert (= true true)) ; opt_dead_code_if_true [untranslatable]

; opt_dead_code_if_false (matches Coq: Theorem opt_dead_code_if_false)
(assert (= true true)) ; opt_dead_code_if_false [untranslatable]

; opt_fst_pair_typed (matches Coq: Theorem opt_fst_pair_typed)
(assert (= true true)) ; opt_fst_pair_typed [untranslatable]

; opt_snd_pair_typed (matches Coq: Theorem opt_snd_pair_typed)
(assert (= true true)) ; opt_snd_pair_typed [untranslatable]

; const_prop_bool (matches Coq: Theorem const_prop_bool)
(assert (= true true)) ; const_prop_bool [untranslatable]

; const_prop_int (matches Coq: Theorem const_prop_int)
(assert (= true true)) ; const_prop_int [untranslatable]

; const_prop_unit (matches Coq: Theorem const_prop_unit)
(assert (= true true)) ; const_prop_unit [untranslatable]

; parsing_correct_prop (matches Coq: Theorem parsing_correct_prop)
(assert (= true true)) ; parsing_correct_prop [untranslatable]

; optimization_relation_reflexive (matches Coq: Theorem optimization_relation_reflexive)
(assert (= true true)) ; optimization_relation_reflexive [untranslatable]

; optimization_relation_symmetric (matches Coq: Theorem optimization_relation_symmetric)
(assert (= true true)) ; optimization_relation_symmetric [untranslatable]

; optimization_relation_transitive (matches Coq: Theorem optimization_relation_transitive)
(assert (= true true)) ; optimization_relation_transitive [untranslatable]

; full_pipeline_correctness (matches Coq: Theorem full_pipeline_correctness)
(assert (= true true)) ; full_pipeline_correctness [untranslatable]

; full_pipeline_termination (matches Coq: Theorem full_pipeline_termination)
(assert (= true true)) ; full_pipeline_termination [untranslatable]

; Verify all assertions are satisfiable
(check-sat)
(exit)
